c Optimised CNF encoding for 4x4 Sudoku
c Source: sudoku_4x4_04.txt
c Variables: 20  Clauses: 84
p cnf 20 84
1 2 0
3 4 0
5 0
6 7 0
8 0
9 10 0
11 12 0
13 0
14 15 0
16 0
17 18 0
19 20 0
-1 -2 0
-3 -4 0
-6 -7 0
-9 -10 0
-11 -12 0
-14 -15 0
-17 -18 0
-19 -20 0
1 3 0
2 0
4 5 0
6 8 0
7 9 0
10 0
11 0
12 14 0
13 15 0
16 17 0
19 0
18 20 0
-1 -3 0
-4 -5 0
-6 -8 0
-7 -9 0
-12 -14 0
-13 -15 0
-16 -17 0
-18 -20 0
6 11 0
12 16 0
7 0
1 8 0
2 17 0
18 0
3 0
4 19 0
13 20 0
14 0
5 9 0
10 15 0
-6 -11 0
-12 -16 0
-1 -8 0
-2 -17 0
-4 -19 0
-13 -20 0
-5 -9 0
-10 -15 0
1 6 8 0
2 0
7 0
3 0
4 5 9 0
10 0
11 0
12 16 17 0
18 0
14 0
19 0
13 15 20 0
-1 -6 0
-1 -8 0
-6 -8 0
-4 -5 0
-4 -9 0
-5 -9 0
-12 -16 0
-12 -17 0
-16 -17 0
-13 -15 0
-13 -20 0
-15 -20 0
